8182
32, 22, 1, 21, 17, 7, 2, 42, 30, 29, 50, 20, 23, 31, 18, 3, 45, 19, 41, 8, 10, 9, 43, 33, 51, 11, 52, 13, 14, 47, 26, 27, 28, 12, 25, 4, 6, 5, 15, 24, 48, 38, 40, 39, 37, 46, 16, 44, 34, 35, 49, 36
